(declare-const a Real)
(declare-const b Real)
(declare-const c Real)
(assert (= (* a b c) 1))
(assert (> a 0))
(assert (> b 0))
(assert (> c 0))
(assert (not (<= (+ (* -2654208 (pow b 4)) (* -1327104 (pow a 4)) (* (pow (+ 62976 (* 1990656 a (pow b 3)) (* 1990656 (pow a (/ 4 3)) (pow b (/ 8 3)))) -3) (pow (+ (* 62976 a) (* 66048 b) (* 1990656 a (pow b 3)) (* 1990656 (pow a (/ 4 3)) (pow b (/ 8 3)))) 4)) (* -2654208 (pow a (pow 3 -1)) (pow b (/ 11 3))) (* -1327104 (pow a (/ 10 3)) (pow b (/ 2 3))) (* 1990656 (pow a (/ 5 3)) (pow b (/ 7 3)))) 0)))
(check-sat)
(get-model)
(exit)